(set-info :status unknown)
(declare-fun %B () (_ BitVec 50))
(declare-fun %C () (_ BitVec 50))
(declare-fun %Cond () (_ BitVec 1))
(assert
 (let ((?x19696 (bvxor %Cond (_ bv1 1))))
 (let ((?x877 ((_ sign_extend 49) ?x19696)))
 (let ((?x106 (bvand %B ?x877)))
 (let ((?x3485 ((_ sign_extend 49) %Cond)))
 (let ((?x8179 (bvand ?x3485 %C)))
 (and (distinct (bvor ?x8179 ?x106) (ite (= %Cond (_ bv1 1)) %C %B)) true)))))))
(check-sat)
